NAME : instance_18_300
TYPE : TSP
DIMENSION : 18
EDGE_WEIGHT_TYPE : EUC_2D
LOWER : 0
UPPER : 100
NODE_COORD_SECTION
1 63.4989220416 81.5178806661
2 65.1215167949 10.7191059738
3 62.0664982125 87.6635984983
4 57.7034894377 34.8407788435
5 52.4234534008 33.090237854
6 42.6088507054 37.8591181478
7 7.7807282098 59.4757055631
8 7.4482806493 43.3022300946
9 32.3348344536 94.1169406055
10 56.5219323384 83.1057934323
11 18.8159205019 56.8256009836
12 41.3331029471 53.968037013
13 46.6434925096 31.95331553
14 72.1870431909 8.3969662897
15 29.5770833734 47.7140139556
16 69.4877226138 38.5950151365
17 90.6409746967 26.8331169151
18 19.930714881 51.5673711663
EOF
